# Objective value = 7.7512199999999884e+03
I_0_0 676
I_0_1 724.000000000004
I_0_2 784.000000000004
I_0_3 7.2399999999999989e+02
I_0_4 7.8399999999999477e+02
I_0_5 7.2400000000000284e+02
I_0_6 1.0380000000000027e+03
I_1_0 53
I_1_1 53
I_1_2 0
I_1_3 5.2999999999996191e+01
I_1_4 3.8085090636741370e-12
I_1_5 52.9999999999984
I_1_6 -1.5987211554602254e-12
I_2_0 67
I_2_1 67
I_2_2 67
I_2_3 67
I_2_4 67
I_2_5 67
I_2_6 0
I_3_0 91
I_3_1 91
I_3_2 91
I_3_3 91
I_3_4 91
I_3_5 91
I_3_6 0
I_4_0 55
I_4_1 5.4999999999996064e+01
I_4_2 -3.9435121834685560e-12
I_4_3 5.5000000000003944e+01
I_4_4 3.9435121834685560e-12
I_4_5 55
I_4_6 0
I_5_0 96
I_5_1 48
I_5_2 96
I_5_3 48
I_5_4 9.5999999999997556e+01
I_5_5 48
I_5_6 0
q_1_0_0 53
q_1_0_1 0
q_1_0_2 1.0599999999999619e+02
q_1_0_3 0
q_1_0_4 0
q_1_0_5 0
q_1_1_0 0
q_1_1_1 0
q_1_1_2 0
q_1_1_3 0
q_1_1_4 -6.6696346881208041e-11
q_1_1_5 0
q_1_2_0 0
q_1_2_1 0
q_1_2_2 0
q_1_2_3 0
q_1_2_4 1.0600000000006129e+02
q_1_2_5 0
q_1_3_0 0
q_1_3_1 0
q_1_3_2 0
q_1_3_3 7.6170181273482740e-12
q_1_3_4 0
q_1_3_5 0
q_2_0_0 0
q_2_0_1 0
q_2_0_2 0
q_2_0_3 0
q_2_0_4 0
q_2_0_5 0
q_2_1_0 4.7978288009176140e-12
q_2_1_1 0
q_2_1_2 67
q_2_1_3 0
q_2_1_4 0
q_2_1_5 0
q_2_2_0 6.6999999999995211e+01
q_2_2_1 67
q_2_2_2 0
q_2_2_3 67
q_2_2_4 0
q_2_2_5 0
q_2_3_0 0
q_2_3_1 0
q_2_3_2 0
q_2_3_3 0
q_2_3_4 67
q_2_3_5 0
q_3_0_0 0
q_3_0_1 91
q_3_0_2 6.5268267594305312e-12
q_3_0_3 0
q_3_0_4 -5.0363602177583289e-11
q_3_0_5 0
q_3_1_0 91
q_3_1_1 0
q_3_1_2 0
q_3_1_3 91
q_3_1_4 9.1000000000052168e+01
q_3_1_5 0
q_3_2_0 0
q_3_2_1 0
q_3_2_2 9.0999999999993477e+01
q_3_2_3 0
q_3_2_4 0
q_3_2_5 0
q_3_3_0 0
q_3_3_1 0
q_3_3_2 0
q_3_3_3 0
q_3_3_4 -1.8084422848119175e-12
q_3_3_5 0
q_4_0_0 55
q_4_0_1 0
q_4_0_2 0
q_4_0_3 0
q_4_0_4 1.1000000000006578e+02
q_4_0_5 0
q_4_1_0 -3.9385161798577428e-12
q_4_1_1 0
q_4_1_2 0
q_4_1_3 0
q_4_1_4 -3.99029646534335e-12
q_4_1_5 0
q_4_2_0 0
q_4_2_1 0
q_4_2_2 7.88957080810284e-12
q_4_2_3 0
q_4_2_4 -6.57884857702129e-11
q_4_2_5 0
q_4_3_0 0
q_4_3_1 0
q_4_3_2 110
q_4_3_3 0
q_4_3_4 0
q_4_3_5 0
q_5_0_0 0
q_5_0_1 0
q_5_0_2 0
q_5_0_3 9.6000000000005173e+01
q_5_0_4 -1.6480604901871197e-12
q_5_0_5 0
q_5_1_0 0
q_5_1_1 96
q_5_1_2 0
q_5_1_3 0
q_5_1_4 2.9791482444456123e-12
q_5_1_5 0
q_5_2_0 0
q_5_2_1 0
q_5_2_2 0
q_5_2_3 0
q_5_2_4 0
q_5_2_5 0
q_5_3_0 0
q_5_3_1 0
q_5_3_2 0
q_5_3_3 -7.6170181273482740e-12
q_5_3_4 0
q_5_3_5 0
y_0_0_0 1
y_0_0_1 1
y_0_0_2 1
y_0_0_3 1
y_0_0_4 1
y_0_0_5 0
y_0_1_0 1
y_0_1_1 1
y_0_1_2 1
y_0_1_3 1
y_0_1_4 1
y_0_1_5 0
y_0_2_0 9.9999999999992850e-01
y_0_2_1 1
y_0_2_2 1
y_0_2_3 1
y_0_2_4 1
y_0_2_5 0
y_0_3_0 0
y_0_3_1 0
y_0_3_2 1
y_0_3_3 0
y_0_3_4 1
y_0_3_5 0
y_1_0_0 1
y_1_0_1 0
y_1_0_2 9.9999999999992828e-01
y_1_0_3 0
y_1_0_4 0
y_1_0_5 0
y_1_1_0 0
y_1_1_1 0
y_1_1_2 0
y_1_1_3 0
y_1_1_4 -5.9323959363618408e-13
y_1_1_5 -3.0204784565348859e-14
y_1_2_0 0
y_1_2_1 0
y_1_2_2 0
y_1_2_3 0
y_1_2_4 1.0000000000005782e+00
y_1_2_5 0
y_1_3_0 0
y_1_3_1 0
y_1_3_2 0
y_1_3_3 7.18586615787573e-14
y_1_3_4 0
y_1_3_5 0
y_2_0_0 0
y_2_0_1 0
y_2_0_2 0
y_2_0_3 0
y_2_0_4 0
y_2_0_5 0
y_2_1_0 7.16093850883226e-14
y_2_1_1 0
y_2_1_2 1
y_2_1_3 0
y_2_1_4 0
y_2_1_5 0
y_2_2_0 9.9999999999992850e-01
y_2_2_1 1
y_2_2_2 0
y_2_2_3 1
y_2_2_4 0
y_2_2_5 0
y_2_3_0 0
y_2_3_1 0
y_2_3_2 0
y_2_3_3 0
y_2_3_4 1
y_2_3_5 0
y_3_0_0 0
y_3_0_1 1
y_3_0_2 7.1723370982753091e-14
y_3_0_3 0
y_3_0_4 -5.5344617777564054e-13
y_3_0_5 0
y_3_1_0 1
y_3_1_1 0
y_3_1_2 0
y_3_1_3 1
y_3_1_4 1.0000000000005733e+00
y_3_1_5 0
y_3_2_0 0
y_3_2_1 0
y_3_2_2 9.9999999999992828e-01
y_3_2_3 0
y_3_2_4 0
y_3_2_5 0
y_3_3_0 0
y_3_3_1 0
y_3_3_2 0
y_3_3_3 0
y_3_3_4 -1.9872992140790302e-14
y_3_3_5 0
y_4_0_0 1
y_4_0_1 0
y_4_0_2 0
y_4_0_3 0
y_4_0_4 1.0000000000005980e+00
y_4_0_5 0
y_4_1_0 -7.16093850883226e-14
y_4_1_1 0
y_4_1_2 0
y_4_1_3 0
y_4_1_4 0
y_4_1_5 0
y_4_2_0 0
y_4_2_1 0
y_4_2_2 7.17233709827531e-14
y_4_2_3 0
y_4_2_4 -5.9807714336557183e-13
y_4_2_5 0
y_4_3_0 0
y_4_3_1 0
y_4_3_2 1
y_4_3_3 0
y_4_3_4 0
y_4_3_5 0
y_5_0_0 0
y_5_0_1 0
y_5_0_2 0
y_5_0_3 1
y_5_0_4 0
y_5_0_5 0
y_5_1_0 0
y_5_1_1 1
y_5_1_2 0
y_5_1_3 0
y_5_1_4 0
y_5_1_5 0
y_5_2_0 0
y_5_2_1 0
y_5_2_2 0
y_5_2_3 1.6433744736941722e-13
y_5_2_4 0
y_5_2_5 0
y_5_3_0 0
y_5_3_1 0
y_5_3_2 0
y_5_3_3 -1.9731015032681306e-13
y_5_3_4 0
y_5_3_5 0
x_0_1_0_0 1
x_0_1_0_1 0
x_0_1_0_2 1.9999999999998566e+00
x_0_1_0_3 0
x_0_1_0_4 0
x_0_1_0_5 0
x_0_1_1_0 0
x_0_1_1_1 0
x_0_1_1_2 0
x_0_1_1_3 0
x_0_1_1_4 -1.2751524420577759e-12
x_0_1_1_5 0
x_0_1_2_0 0
x_0_1_2_1 0
x_0_1_2_2 0
x_0_1_2_3 0
x_0_1_2_4 2.0000000000011564e+00
x_0_1_2_5 0
x_0_1_3_0 0
x_0_1_3_1 0
x_0_1_3_2 0
x_0_1_3_3 1.4371732315751460e-13
x_0_1_3_4 0
x_0_1_3_5 0
x_0_2_0_0 0
x_0_2_0_1 0
x_0_2_0_2 0
x_0_2_0_3 0
x_0_2_0_4 0
x_0_2_0_5 0
x_0_2_1_0 1.4321877017664519e-13
x_0_2_1_1 0
x_0_2_1_2 2
x_0_2_1_3 0
x_0_2_1_4 0
x_0_2_1_5 0
x_0_2_2_0 1.9999999999998570e+00
x_0_2_2_1 2
x_0_2_2_2 0
x_0_2_2_3 1.9999999999998357e+00
x_0_2_2_4 0
x_0_2_2_5 0
x_0_2_3_0 0
x_0_2_3_1 0
x_0_2_3_2 0
x_0_2_3_3 2.3381462106292041e-13
x_0_2_3_4 2
x_0_2_3_5 0
x_0_3_0_0 0
x_0_3_0_1 2
x_0_3_0_2 1.4344674196550618e-13
x_0_3_0_3 0
x_0_3_0_4 -1.1068923555512811e-12
x_0_3_0_5 0
x_0_3_1_0 2
x_0_3_1_1 0
x_0_3_1_2 0
x_0_3_1_3 2
x_0_3_1_4 2.0000000000011466e+00
x_0_3_1_5 0
x_0_3_2_0 0
x_0_3_2_1 0
x_0_3_2_2 1.9999999999998566e+00
x_0_3_2_3 0
x_0_3_2_4 0
x_0_3_2_5 0
x_0_3_3_0 0
x_0_3_3_1 0
x_0_3_3_2 0
x_0_3_3_3 0
x_0_3_3_4 -3.9745984281580604e-14
x_0_3_3_5 0
x_0_4_0_0 1
x_0_4_0_1 0
x_0_4_0_2 0
x_0_4_0_3 0
x_0_4_0_4 2.0000000000011959e+00
x_0_4_0_5 0
x_0_4_1_0 -1.4321877017664519e-13
x_0_4_1_1 0
x_0_4_1_2 0
x_0_4_1_3 0
x_0_4_1_4 0
x_0_4_1_5 0
x_0_4_2_0 0
x_0_4_2_1 0
x_0_4_2_2 1.4344674196550621e-13
x_0_4_2_3 0
x_0_4_2_4 -1.1961542867311437e-12
x_0_4_2_5 0
x_0_4_3_0 0
x_0_4_3_1 0
x_0_4_3_2 2
x_0_4_3_3 0
x_0_4_3_4 0
x_0_4_3_5 0
x_0_5_0_0 0
x_0_5_0_1 0
x_0_5_0_2 0
x_0_5_0_3 2
x_0_5_0_4 0
x_0_5_0_5 0
x_0_5_1_0 0
x_0_5_1_1 2
x_0_5_1_2 0
x_0_5_1_3 0
x_0_5_1_4 0
x_0_5_1_5 0
x_0_5_2_0 0
x_0_5_2_1 0
x_0_5_2_2 0
x_0_5_2_3 1.6433744736941722e-13
x_0_5_2_4 0
x_0_5_2_5 0
x_0_5_3_0 0
x_0_5_3_1 0
x_0_5_3_2 0
x_0_5_3_3 -2.7174002578503583e-13
x_0_5_3_4 0
x_0_5_3_5 0
x_1_2_0_0 0
x_1_2_0_1 0
x_1_2_0_2 0
x_1_2_0_3 0
x_1_2_0_4 0
x_1_2_0_5 0
x_1_2_1_0 0
x_1_2_1_1 0
x_1_2_1_2 0
x_1_2_1_3 0
x_1_2_1_4 0
x_1_2_1_5 0
x_1_2_2_0 0
x_1_2_2_1 0
x_1_2_2_2 0
x_1_2_2_3 0
x_1_2_2_4 0
x_1_2_2_5 0
x_1_2_3_0 0
x_1_2_3_1 0
x_1_2_3_2 0
x_1_2_3_3 0
x_1_2_3_4 0
x_1_2_3_5 0
x_1_3_0_0 0
x_1_3_0_1 0
x_1_3_0_2 0
x_1_3_0_3 0
x_1_3_0_4 0
x_1_3_0_5 0
x_1_3_1_0 0
x_1_3_1_1 0
x_1_3_1_2 0
x_1_3_1_3 0
x_1_3_1_4 0
x_1_3_1_5 0
x_1_3_2_0 0
x_1_3_2_1 0
x_1_3_2_2 0
x_1_3_2_3 0
x_1_3_2_4 0
x_1_3_2_5 0
x_1_3_3_0 0
x_1_3_3_1 0
x_1_3_3_2 0
x_1_3_3_3 0
x_1_3_3_4 0
x_1_3_3_5 0
x_1_4_0_0 1
x_1_4_0_1 0
x_1_4_0_2 0
x_1_4_0_3 0
x_1_4_0_4 0
x_1_4_0_5 0
x_1_4_1_0 0
x_1_4_1_1 0
x_1_4_1_2 0
x_1_4_1_3 0
x_1_4_1_4 8.8673254785407774e-14
x_1_4_1_5 0
x_1_4_2_0 0
x_1_4_2_1 0
x_1_4_2_2 0
x_1_4_2_3 0
x_1_4_2_4 0
x_1_4_2_5 0
x_1_4_3_0 0
x_1_4_3_1 0
x_1_4_3_2 0
x_1_4_3_3 0
x_1_4_3_4 0
x_1_4_3_5 0
x_1_5_0_0 0
x_1_5_0_1 0
x_1_5_0_2 0
x_1_5_0_3 0
x_1_5_0_4 0
x_1_5_0_5 0
x_1_5_1_0 0
x_1_5_1_1 0
x_1_5_1_2 0
x_1_5_1_3 0
x_1_5_1_4 0
x_1_5_1_5 0
x_1_5_2_0 0
x_1_5_2_1 0
x_1_5_2_2 0
x_1_5_2_3 0
x_1_5_2_4 0
x_1_5_2_5 0
x_1_5_3_0 0
x_1_5_3_1 0
x_1_5_3_2 0
x_1_5_3_3 0
x_1_5_3_4 0
x_1_5_3_5 0
x_2_3_0_0 0
x_2_3_0_1 0
x_2_3_0_2 0
x_2_3_0_3 0
x_2_3_0_4 0
x_2_3_0_5 0
x_2_3_1_0 0
x_2_3_1_1 0
x_2_3_1_2 0
x_2_3_1_3 0
x_2_3_1_4 0
x_2_3_1_5 0
x_2_3_2_0 0
x_2_3_2_1 0
x_2_3_2_2 0
x_2_3_2_3 0
x_2_3_2_4 0
x_2_3_2_5 0
x_2_3_3_0 0
x_2_3_3_1 0
x_2_3_3_2 0
x_2_3_3_3 0
x_2_3_3_4 0
x_2_3_3_5 0
x_2_4_0_0 0
x_2_4_0_1 0
x_2_4_0_2 0
x_2_4_0_3 0
x_2_4_0_4 0
x_2_4_0_5 0
x_2_4_1_0 0
x_2_4_1_1 0
x_2_4_1_2 0
x_2_4_1_3 0
x_2_4_1_4 0
x_2_4_1_5 0
x_2_4_2_0 0
x_2_4_2_1 0
x_2_4_2_2 0
x_2_4_2_3 0
x_2_4_2_4 0
x_2_4_2_5 0
x_2_4_3_0 0
x_2_4_3_1 0
x_2_4_3_2 0
x_2_4_3_3 0
x_2_4_3_4 0
x_2_4_3_5 0
x_2_5_0_0 0
x_2_5_0_1 0
x_2_5_0_2 0
x_2_5_0_3 0
x_2_5_0_4 0
x_2_5_0_5 0
x_2_5_1_0 0
x_2_5_1_1 0
x_2_5_1_2 0
x_2_5_1_3 0
x_2_5_1_4 0
x_2_5_1_5 0
x_2_5_2_0 0
x_2_5_2_1 0
x_2_5_2_2 0
x_2_5_2_3 1.6431300764452317e-13
x_2_5_2_4 0
x_2_5_2_5 0
x_2_5_3_0 0
x_2_5_3_1 0
x_2_5_3_2 0
x_2_5_3_3 -2.3381462106292041e-13
x_2_5_3_4 0
x_2_5_3_5 0
x_3_4_0_0 0
x_3_4_0_1 0
x_3_4_0_2 0
x_3_4_0_3 0
x_3_4_0_4 0
x_3_4_0_5 0
x_3_4_1_0 0
x_3_4_1_1 0
x_3_4_1_2 0
x_3_4_1_3 0
x_3_4_1_4 0
x_3_4_1_5 0
x_3_4_2_0 0
x_3_4_2_1 0
x_3_4_2_2 0
x_3_4_2_3 0
x_3_4_2_4 0
x_3_4_2_5 0
x_3_4_3_0 0
x_3_4_3_1 0
x_3_4_3_2 0
x_3_4_3_3 0
x_3_4_3_4 0
x_3_4_3_5 0
x_3_5_0_0 0
x_3_5_0_1 0
x_3_5_0_2 0
x_3_5_0_3 0
x_3_5_0_4 0
x_3_5_0_5 0
x_3_5_1_0 0
x_3_5_1_1 0
x_3_5_1_2 0
x_3_5_1_3 0
x_3_5_1_4 0
x_3_5_1_5 0
x_3_5_2_0 0
x_3_5_2_1 0
x_3_5_2_2 0
x_3_5_2_3 0
x_3_5_2_4 0
x_3_5_2_5 0
x_3_5_3_0 0
x_3_5_3_1 0
x_3_5_3_2 0
x_3_5_3_3 0
x_3_5_3_4 0
x_3_5_3_5 0
x_4_5_0_0 0
x_4_5_0_1 0
x_4_5_0_2 0
x_4_5_0_3 0
x_4_5_0_4 0
x_4_5_0_5 0
x_4_5_1_0 0
x_4_5_1_1 0
x_4_5_1_2 0
x_4_5_1_3 0
x_4_5_1_4 0
x_4_5_1_5 0
x_4_5_2_0 0
x_4_5_2_1 0
x_4_5_2_2 0
x_4_5_2_3 0
x_4_5_2_4 0
x_4_5_2_5 0
x_4_5_3_0 0
x_4_5_3_1 0
x_4_5_3_2 0
x_4_5_3_3 0
x_4_5_3_4 0
x_4_5_3_5 0
